/*********************************************
 * OPL 12.6.0.0 Model
 * Author: Michal Robaszynski
 *********************************************/
 
iLiczbaZadan = 8; //liczba zadan
iLiczbaZasobow = 1; //liczba zasobow

// ile dostepne i-tego zasobu
DostepneZasoby = [ 30 ];

// wykorzystanie j-tego zasobu dla i-tego zadania 
WykorzystanieZasobu =  [
       [9],
       [17],
       [11],
       [4],
       [13],
       [7],
       [7],
       [17]
      ];  
      
// <i,j> - j musi byc wykonane po i
Kolejnosc = {
		<1, 2>,
		<1, 3>,
		<1, 4>,
		<2, 5>,
		<3, 6>,
		<4, 6>,
		<4, 7>,
		<5, 8>,
		<6, 8>,
		<7, 8>
		};

// czas trwania i-tego zadania
CzasTrwania = [
	50, 47, 55, 46, 32, 57, 15, 62
	];